proyfinal/src/viki/013/experimentInOfficeAgust.take6.output/f8e6d6f6-1f76-409f-b128-49e02414fe1a.als.out
Reading from standard input... Use '--help' for help.
============================[ Problem Statistics ]=============================
|                                                                             |
|  Number of variables:         87638                                         |
|  Number of clauses:          161767                                         |
|  Parse time:                   0.03 s                                       |
|                                                                             |
============================[ Search Statistics ]==============================
| Conflicts |          ORIGINAL         |          LEARNT          | Progress |
|           |    Vars  Clauses Literals |    Limit  Clauses Lit/Cl |          |
===============================================================================
|       100 |   63683   109879   274792 |    40288      100      9 | 27.334 % |
|       250 |   63678   109819   274658 |    44317      237     31 | 27.340 % |
|       475 |   63678   109819   274658 |    48749      462     39 | 27.340 % |
|       812 |   63678   109819   274658 |    53624      799     45 | 27.340 % |
|      1318 |   63658   109735   274465 |    58987     1304     68 | 27.363 % |
|      2077 |   63658   109735   274465 |    64885     2063     76 | 27.363 % |
|      3216 |   63612   109699   274375 |    71374     3196     78 | 27.415 % |
|      4924 |   63603   109534   273935 |    78511     4873     82 | 27.425 % |
|      7486 |   63574   109417   273654 |    86362     7169     95 | 27.459 % |
===============================================================================
restarts              : 46
conflicts             : 10607          (5753 /sec)
decisions             : 36869          (0.00 % random) (19996 /sec)
propagations          : 18752005       (10170298 /sec)
conflict literals     : 889234         (54.75 % deleted)
Memory used           : 32.59 MB
CPU time              : 1.8438 s

UNSATISFIABLE
